%SETS
JOBS = 1..25;
MACHINES = 1..10;
SPEED    = 5;

time = array3d(JOBS,MACHINES,1..SPEED,[25, 8, 6, 5, 4, 19, 6, 4, 3, 3, 3, 1, 1, 1, 1, 18, 6, 4, 3, 3, 5, 1, 1, 1, 1, 39, 13, 9, 8, 7, 49, 17, 12, 10, 8, 17, 6, 4, 3, 3, 48, 16, 11, 9, 8, 2, 1, 1, 1, 1, 18, 6, 4, 3, 3, 1, 1, 1, 1, 1, 14, 4, 3, 2, 2, 2, 1, 1, 1, 1, 3, 1, 1, 1, 1, 23, 8, 5, 4, 4, 6, 2, 1, 1, 1, 2, 1, 1, 1, 1, 6, 2, 1, 1, 1, 11, 3, 2, 2, 2, 16, 5, 3, 3, 2, 5, 2, 1, 1, 1, 26, 9, 6, 5, 4, 17, 5, 4, 3, 3, 18, 6, 4, 3, 3, 12, 4, 3, 2, 2, 40, 14, 10, 8, 7, 22, 7, 5, 4, 4, 4, 1, 1, 1, 1, 31, 10, 7, 6, 5, 86, 29, 21, 17, 15, 17, 6, 4, 3, 3, 57, 19, 13, 11, 10, 10, 3, 2, 2, 1, 21, 7, 5, 4, 3, 14, 4, 3, 2, 2, 14, 5, 3, 3, 2, 38, 13, 9, 7, 6, 19, 6, 4, 4, 3, 79, 27, 19, 16, 14, 20, 7, 4, 4, 3, 2, 1, 1, 1, 1, 11, 4, 2, 2, 2, 49, 17, 12, 10, 8, 13, 4, 3, 2, 2, 1, 1, 1, 1, 1, 7, 2, 1, 1, 1, 1, 1, 1, 1, 1, 131, 45, 32, 26, 23, 91, 31, 22, 18, 16, 41, 14, 10, 8, 7, 23, 8, 5, 4, 4, 37, 12, 9, 7, 6, 4, 1, 1, 1, 1, 8, 3, 2, 1, 1, 19, 6, 4, 3, 3, 11, 3, 2, 2, 2, 1, 1, 1, 1, 1, 105, 36, 25, 21, 19, 15, 5, 3, 3, 2, 18, 6, 4, 3, 3, 10, 3, 2, 2, 1, 7, 2, 1, 1, 1, 12, 4, 3, 2, 2, 46, 15, 11, 9, 8, 34, 11, 8, 7, 6, 12, 4, 3, 2, 2, 1, 1, 1, 1, 1, 41, 14, 10, 8, 7, 8, 2, 1, 1, 1, 22, 7, 5, 4, 4, 1, 1, 1, 1, 1, 28, 9, 6, 5, 5, 12, 4, 3, 2, 2, 17, 6, 4, 3, 3, 13, 4, 3, 2, 2, 11, 3, 2, 2, 2, 20, 7, 5, 4, 3, 93, 32, 22, 18, 16, 3, 1, 1, 1, 1, 9, 3, 2, 1, 1, 1, 1, 1, 1, 1, 34, 11, 8, 7, 6, 27, 9, 6, 5, 4, 6, 2, 1, 1, 1, 13, 4, 3, 2, 2, 26, 9, 6, 5, 4, 28, 9, 6, 5, 5, 4, 1, 1, 1, 1, 55, 19, 13, 11, 9, 38, 13, 9, 7, 7, 3, 1, 1, 1, 1, 52, 18, 12, 10, 9, 35, 12, 8, 7, 6, 41, 14, 10, 8, 7, 20, 7, 4, 4, 3, 6, 2, 1, 1, 1, 64, 22, 15, 13, 11, 23, 8, 5, 4, 4, 10, 3, 2, 2, 1, 7, 2, 1, 1, 1, 63, 21, 15, 12, 11, 14, 4, 3, 2, 2, 20, 6, 4, 4, 3, 24, 8, 5, 4, 4, 45, 15, 11, 9, 8, 25, 8, 6, 5, 4, 5, 1, 1, 1, 1, 23, 7, 5, 4, 4, 17, 6, 4, 3, 3, 20, 7, 5, 4, 3, 31, 10, 7, 6, 5, 7, 2, 1, 1, 1, 5, 1, 1, 1, 1, 3, 1, 1, 1, 1, 8, 2, 2, 1, 1, 1, 1, 1, 1, 1, 25, 8, 6, 5, 4, 9, 3, 2, 1, 1, 5, 1, 1, 1, 1, 2, 1, 1, 1, 1, 8, 2, 2, 1, 1, 6, 2, 1, 1, 1, 8, 3, 2, 1, 1, 16, 5, 4, 3, 2, 20, 7, 5, 4, 3, 48, 16, 11, 9, 8, 115, 39, 28, 23, 20, 1, 1, 1, 1, 1, 6, 2, 1, 1, 1, 26, 9, 6, 5, 4, 4, 1, 1, 1, 1, 52, 18, 12, 10, 9, 6, 2, 1, 1, 1, 35, 12, 8, 7, 6, 27, 9, 6, 5, 4, 41, 14, 10, 8, 7, 1, 1, 1, 1, 1, 6, 2, 1, 1, 1, 31, 10, 7, 6, 5, 2, 1, 1, 1, 1, 1, 1, 1, 1, 1, 11, 3, 2, 2, 2, 23, 7, 5, 4, 4, 1, 1, 1, 1, 1, 1, 1, 1, 1, 1, 1, 1, 1, 1, 1, 13, 4, 3, 2, 2, 28, 9, 6, 5, 5, 5, 1, 1, 1, 1, 54, 18, 13, 10, 9, 14, 5, 3, 2, 2, 25, 8, 6, 5, 4, 8, 3, 2, 1, 1, 24, 8, 6, 5, 4, 79, 27, 19, 16, 14, 15, 5, 3, 3, 2, 6, 2, 1, 1, 1, 14, 4, 3, 2, 2, 15, 5, 3, 3, 2, 18, 6, 4, 3, 3, 19, 6, 4, 3, 3, 1, 1, 1, 1, 1, 4, 1, 1, 1, 1, 15, 5, 3, 3, 2, 31, 11, 7, 6, 5, 38, 13, 9, 7, 7, 38, 13, 9, 7, 6, 18, 6, 4, 3, 3, 81, 28, 19, 16, 14, 10, 3, 2, 2, 1, 16, 5, 4, 3, 3, 35, 12, 8, 7, 6, 50, 17, 12, 10, 9, 13, 4, 3, 2, 2, 48, 16, 11, 9, 8, 15, 5, 3, 3, 2, 32, 11, 7, 6, 5, 1, 1, 1, 1, 1, 1, 1, 1, 1, 1, 73, 25, 17, 14, 13, 2, 1, 1, 1, 1, 28, 9, 6, 5, 5, 8, 2, 2, 1, 1, 5, 2, 1, 1, 1, 12, 4, 3, 2, 2, 67, 23, 16, 13, 12, 21, 7, 5, 4, 3, 64, 22, 15, 13, 11, 31, 10, 7, 6, 5, 18, 6, 4, 3, 3, 18, 6, 4, 3, 3, 6, 2, 1, 1, 1, 1, 1, 1, 1, 1, 14, 4, 3, 2, 2, 21, 7, 5, 4, 3, 54, 18, 13, 11, 9, 29, 10, 7, 5, 5, 47, 16, 11, 9, 8, 67, 23, 16, 13, 12, 73, 25, 17, 14, 13, 43, 15, 10, 8, 7, 3, 1, 1, 1, 1, 11, 3, 2, 2, 1, 6, 2, 1, 1, 1, 52, 18, 12, 10, 9, 40, 14, 9, 8, 7, 11, 3, 2, 2, 1, 21, 7, 5, 4, 3, 42, 14, 10, 8, 7, 46, 16, 11, 9, 8, 5, 2, 1, 1, 1, 33, 11, 8, 6, 6, 42, 14, 10, 8, 7, 1, 1, 1, 1, 1, 2, 1, 1, 1, 1, 14, 5, 3, 3, 2, 6, 2, 1, 1, 1, 55, 18, 13, 11, 9, 32, 11, 8, 6, 5, 32, 11, 7, 6, 5, 38, 13, 9, 7, 6, 10, 3, 2, 2, 1, 6, 2, 1, 1, 1, 25, 8, 6, 5, 4, 13, 4, 3, 2, 2, 71, 24, 17, 14, 12, 26, 9, 6, 5, 4, 12, 4, 3, 2, 2, 49, 17, 12, 10, 8, 12, 4, 3, 2, 2, 5, 1, 1, 1, 1, 39, 13, 9, 8, 7, 16, 5, 4, 3, 2, 7, 2, 1, 1, 1, 30, 10, 7, 6, 5, 101, 35, 24, 20, 18, 7, 2, 1, 1, 1, 40, 13, 9, 8, 7, 37, 12, 9, 7, 6, 3, 1, 1, 1, 1, 47, 16, 11, 9, 8, 16, 5, 3, 3, 2, 3, 1, 1, 1, 1, 19, 6, 4, 4, 3, 9, 3, 2, 1, 1, 5, 1, 1, 1, 1, 2, 1, 1, 1, 1, 5, 1, 1, 1, 1, 14, 5, 3, 2, 2]);
energy = array3d(JOBS,MACHINES,1..SPEED,[77, 92, 94, 95, 96, 82, 94, 96, 97, 97, 97, 99, 99, 99, 99, 83, 94, 96, 97, 97, 95, 99, 99, 99, 99, 67, 87, 91, 92, 93, 61, 84, 88, 90, 92, 84, 94, 96, 97, 97, 61, 85, 89, 91, 92, 98, 99, 99, 99, 99, 83, 94, 96, 97, 97, 99, 99, 99, 99, 99, 86, 96, 97, 98, 98, 98, 99, 99, 99, 99, 97, 99, 99, 99, 99, 79, 92, 95, 96, 96, 94, 98, 99, 99, 99, 98, 99, 99, 99, 99, 94, 98, 99, 99, 99, 89, 97, 98, 98, 98, 85, 95, 97, 97, 98, 95, 98, 99, 99, 99, 77, 91, 94, 95, 96, 84, 95, 96, 97, 97, 83, 94, 96, 97, 97, 88, 96, 97, 98, 98, 67, 86, 90, 92, 93, 80, 93, 95, 96, 96, 96, 99, 99, 99, 99, 73, 90, 93, 94, 95, 42, 74, 81, 84, 86, 84, 94, 96, 97, 97, 56, 82, 87, 89, 90, 90, 97, 98, 98, 99, 81, 93, 95, 96, 97, 86, 96, 97, 98, 98, 86, 95, 97, 97, 98, 68, 87, 91, 93, 94, 82, 94, 96, 96, 97, 45, 76, 82, 85, 86, 81, 93, 96, 96, 97, 98, 99, 99, 99, 99, 89, 96, 98, 98, 98, 61, 84, 88, 90, 92, 87, 96, 97, 98, 98, 99, 99, 99, 99, 99, 93, 98, 99, 99, 99, 99, 99, 99, 99, 99, 26, 63, 72, 77, 79, 40, 73, 80, 83, 85, 66, 86, 90, 92, 93, 79, 92, 95, 96, 96, 69, 88, 91, 93, 94, 96, 99, 99, 99, 99, 92, 97, 98, 99, 99, 82, 94, 96, 97, 97, 89, 97, 98, 98, 98, 99, 99, 99, 99, 99, 34, 69, 77, 81, 82, 86, 95, 97, 97, 98, 83, 94, 96, 97, 97, 90, 97, 98, 98, 99, 93, 98, 99, 99, 99, 88, 96, 97, 98, 98, 63, 86, 89, 91, 92, 71, 89, 92, 93, 94, 88, 96, 97, 98, 98, 99, 99, 99, 99, 99, 66, 86, 90, 92, 93, 92, 98, 99, 99, 99, 80, 93, 95, 96, 96, 99, 99, 99, 99, 99, 75, 91, 94, 95, 95, 88, 96, 97, 98, 98, 84, 94, 96, 97, 97, 87, 96, 97, 98, 98, 89, 97, 98, 98, 98, 81, 93, 95, 96, 97, 39, 72, 80, 83, 85, 97, 99, 99, 99, 99, 91, 97, 98, 99, 99, 99, 99, 99, 99, 99, 71, 89, 92, 93, 94, 76, 91, 94, 95, 96, 94, 98, 99, 99, 99, 87, 96, 97, 98, 98, 77, 91, 94, 95, 96, 75, 91, 94, 95, 95, 96, 99, 99, 99, 99, 57, 82, 87, 89, 91, 68, 87, 91, 93, 93, 97, 99, 99, 99, 99, 59, 83, 88, 90, 91, 70, 88, 92, 93, 94, 66, 86, 90, 92, 93, 81, 93, 96, 96, 97, 94, 98, 99, 99, 99, 52, 80, 86, 87, 89, 79, 92, 95, 96, 96, 90, 97, 98, 98, 99, 93, 98, 99, 99, 99, 53, 81, 86, 88, 89, 86, 96, 97, 98, 98, 81, 94, 96, 96, 97, 78, 92, 95, 96, 96, 63, 86, 89, 91, 92, 77, 92, 94, 95, 96, 95, 99, 99, 99, 99, 79, 93, 95, 96, 96, 84, 94, 96, 97, 97, 81, 93, 95, 96, 97, 73, 90, 93, 94, 95, 93, 98, 99, 99, 99, 95, 99, 99, 99, 99, 97, 99, 99, 99, 99, 92, 98, 98, 99, 99, 99, 99, 99, 99, 99, 77, 92, 94, 95, 96, 91, 97, 98, 99, 99, 95, 99, 99, 99, 99, 98, 99, 99, 99, 99, 92, 98, 98, 99, 99, 94, 98, 99, 99, 99, 92, 97, 98, 99, 99, 85, 95, 96, 97, 98, 81, 93, 95, 96, 97, 61, 85, 89, 91, 92, 31, 67, 75, 79, 81, 99, 99, 99, 99, 99, 94, 98, 99, 99, 99, 77, 91, 94, 95, 96, 96, 99, 99, 99, 99, 59, 83, 88, 90, 91, 94, 98, 99, 99, 99, 70, 88, 92, 93, 94, 76, 91, 94, 95, 96, 66, 86, 90, 92, 93, 99, 99, 99, 99, 99, 94, 98, 99, 99, 99, 73, 90, 93, 94, 95, 98, 99, 99, 99, 99, 99, 99, 99, 99, 99, 89, 97, 98, 98, 98, 79, 93, 95, 96, 96, 99, 99, 99, 99, 99, 99, 99, 99, 99, 99, 99, 99, 99, 99, 99, 87, 96, 97, 98, 98, 75, 91, 94, 95, 95, 95, 99, 99, 99, 99, 58, 83, 87, 90, 91, 86, 95, 97, 98, 98, 77, 92, 94, 95, 96, 92, 97, 98, 99, 99, 78, 92, 94, 95, 96, 45, 76, 82, 85, 86, 86, 95, 97, 97, 98, 94, 98, 99, 99, 99, 86, 96, 97, 98, 98, 86, 95, 97, 97, 98, 83, 94, 96, 97, 97, 82, 94, 96, 97, 97, 99, 99, 99, 99, 99, 96, 99, 99, 99, 99, 86, 95, 97, 97, 98, 73, 89, 93, 94, 95, 68, 87, 91, 93, 93, 68, 87, 91, 93, 94, 83, 94, 96, 97, 97, 44, 75, 82, 85, 86, 90, 97, 98, 98, 99, 85, 95, 96, 97, 97, 70, 88, 92, 93, 94, 60, 84, 88, 90, 91, 87, 96, 97, 98, 98, 61, 85, 89, 91, 92, 86, 95, 97, 97, 98, 72, 89, 93, 94, 95, 99, 99, 99, 99, 99, 99, 99, 99, 99, 99, 48, 77, 84, 86, 87, 98, 99, 99, 99, 99, 75, 91, 94, 95, 95, 92, 98, 98, 99, 99, 95, 98, 99, 99, 99, 88, 96, 97, 98, 98, 51, 79, 85, 87, 88, 81, 93, 95, 96, 97, 52, 80, 86, 87, 89, 73, 90, 93, 94, 95, 83, 94, 96, 97, 97, 83, 94, 96, 97, 97, 94, 98, 99, 99, 99, 99, 99, 99, 99, 99, 86, 96, 97, 98, 98, 81, 93, 95, 96, 97, 58, 83, 87, 89, 91, 74, 90, 93, 95, 95, 62, 85, 89, 91, 92, 51, 79, 85, 87, 88, 48, 77, 84, 86, 87, 65, 86, 90, 92, 93, 97, 99, 99, 99, 99, 89, 97, 98, 98, 99, 94, 98, 99, 99, 99, 59, 83, 88, 90, 91, 67, 86, 91, 92, 93, 89, 97, 98, 98, 99, 81, 93, 95, 96, 97, 65, 86, 90, 92, 93, 63, 85, 89, 91, 92, 95, 98, 99, 99, 99, 71, 89, 92, 94, 94, 65, 86, 90, 92, 93, 99, 99, 99, 99, 99, 98, 99, 99, 99, 99, 86, 95, 97, 97, 98, 94, 98, 99, 99, 99, 57, 83, 87, 89, 91, 72, 89, 92, 94, 95, 72, 89, 93, 94, 95, 68, 87, 91, 93, 94, 90, 97, 98, 98, 99, 94, 98, 99, 99, 99, 77, 92, 94, 95, 96, 87, 96, 97, 98, 98, 49, 78, 84, 86, 88, 77, 91, 94, 95, 96, 88, 96, 97, 98, 98, 61, 84, 88, 90, 92, 88, 96, 97, 98, 98, 95, 99, 99, 99, 99, 67, 87, 91, 92, 93, 85, 95, 96, 97, 98, 93, 98, 99, 99, 99, 74, 90, 93, 94, 95, 36, 70, 78, 81, 83, 93, 98, 99, 99, 99, 67, 87, 91, 92, 93, 69, 88, 91, 93, 94, 97, 99, 99, 99, 99, 62, 85, 89, 91, 92, 85, 95, 97, 97, 98, 97, 99, 99, 99, 99, 82, 94, 96, 96, 97, 91, 97, 98, 99, 99, 95, 99, 99, 99, 99, 98, 99, 99, 99, 99, 95, 99, 99, 99, 99, 86, 95, 97, 98, 98]);
precedence = array2d(JOBS,MACHINES,[2, 5, 1, 4, 6, 8, 3, 9, 0, 7, 6, 8, 2, 0, 1, 5, 9, 7, 4, 3, 3, 5, 9, 4, 7, 2, 6, 1, 0, 8, 1, 2, 7, 3, 6, 0, 9, 5, 8, 4, 2, 4, 0, 1, 8, 5, 3, 7, 6, 9, 6, 2, 9, 0, 3, 4, 1, 5, 7, 8, 5, 9, 4, 7, 2, 0, 6, 1, 3, 8, 8, 5, 3, 7, 9, 6, 2, 0, 4, 1, 1, 0, 5, 3, 8, 7, 9, 6, 2, 4, 7, 8, 6, 0, 2, 9, 1, 5, 4, 3, 8, 4, 7, 2, 9, 5, 3, 0, 1, 6, 0, 6, 7, 5, 2, 4, 9, 1, 8, 3, 6, 8, 1, 2, 7, 9, 5, 0, 3, 4, 7, 4, 5, 8, 1, 3, 6, 0, 9, 2, 3, 4, 6, 0, 7, 9, 2, 8, 5, 1, 2, 1, 6, 0, 7, 4, 9, 5, 3, 8, 9, 6, 5, 8, 4, 1, 7, 3, 0, 2, 0, 5, 6, 2, 3, 7, 1, 8, 9, 4, 9, 2, 0, 1, 3, 4, 5, 6, 8, 7, 5, 0, 6, 7, 8, 9, 3, 2, 4, 1, 6, 1, 3, 4, 9, 0, 7, 2, 8, 5, 0, 8, 3, 1, 2, 4, 5, 9, 6, 7, 0, 7, 8, 4, 3, 1, 6, 5, 2, 9, 6, 9, 5, 7, 0, 3, 8, 1, 4, 2, 1, 4, 0, 7, 3, 5, 8, 9, 2, 6]);